p cnf 806 2190
a 1 2 3 4 5 6 7 8 9 10 11 12 13 14 15 16 17 18 19 20 21 22 23 24 25 26 27 28 29 30 31 32 33 34 35 36 37 38 39 40 41 42 43 44 45 46 47 48 49 50 51 52 53 54 55 56 57 58 59 60 61 62 63 64 65 66 67 68 69 70 71 72 73 74 75 76 77 78 79 80 81 82 83 84 85 86 87 88 89 90 91 92 93 94 95 96 97 98 99 100 101 102 0
e 103 104 105 106 107 108 109 110 111 112 113 114 115 116 117 118 119 120 121 122 123 124 125 126 127 128 129 130 131 132 133 134 135 136 137 138 139 140 141 142 143 144 145 146 147 148 149 150 151 152 153 154 155 156 157 158 159 160 161 162 163 164 165 166 167 168 169 170 171 172 173 174 175 176 177 178 179 180 181 182 183 184 185 186 187 188 189 190 191 192 193 194 195 196 197 198 199 200 201 202 203 204 205 206 207 208 209 210 211 212 213 214 215 216 217 218 219 220 221 222 223 224 225 226 227 228 229 230 231 232 233 234 235 236 237 238 239 240 241 242 243 244 245 246 247 248 249 250 251 252 253 254 255 256 257 258 259 260 261 262 263 264 265 266 267 268 269 270 271 272 273 274 275 276 277 278 279 280 281 282 283 284 285 286 287 288 289 290 291 292 293 294 295 296 297 298 299 300 301 302 303 304 305 306 307 308 309 310 311 312 313 314 315 316 317 318 319 320 321 322 323 324 325 326 327 328 329 330 331 332 333 334 335 336 337 338 339 340 341 342 343 344 345 346 347 348 349 350 351 352 353 354 355 356 357 358 359 360 361 362 363 364 365 366 367 368 369 370 371 372 373 374 375 376 377 378 379 380 381 382 383 384 385 386 387 388 389 390 391 392 393 394 395 396 397 398 399 400 401 402 403 404 405 406 407 408 409 410 411 412 413 414 415 416 417 418 419 420 421 422 423 424 425 426 427 428 429 430 431 432 433 434 435 436 437 438 439 440 441 442 443 444 445 446 447 448 449 450 451 452 453 454 455 456 457 458 459 460 461 462 463 464 465 466 467 468 469 470 471 472 473 474 475 476 477 478 479 480 481 482 483 484 485 486 487 488 489 490 491 492 493 494 495 496 497 498 499 500 501 502 503 504 505 506 507 508 509 510 511 512 513 514 515 516 517 518 519 520 521 522 523 524 525 526 527 528 529 530 531 532 533 534 535 536 537 538 539 540 541 542 543 544 545 546 547 548 549 550 551 552 553 554 555 556 557 558 559 560 561 562 563 564 565 566 567 568 569 570 571 572 573 574 575 576 577 578 579 580 581 582 583 584 585 586 587 588 589 590 591 592 593 594 595 596 597 598 599 600 601 602 603 604 605 606 607 608 609 610 611 612 613 614 615 616 617 618 619 620 621 622 623 624 625 626 627 628 629 630 631 632 633 634 635 636 637 638 639 640 641 642 643 644 645 646 647 648 649 650 651 652 653 654 655 656 657 658 659 660 661 662 663 664 665 666 667 668 669 670 671 672 673 674 675 676 677 678 679 680 681 682 683 684 685 686 687 688 689 690 691 692 693 694 695 696 697 698 699 700 701 702 703 704 705 706 707 708 709 710 711 712 713 714 715 716 717 718 719 720 721 722 723 724 725 726 727 728 729 730 731 732 733 734 735 736 737 738 739 740 741 742 743 744 745 746 747 748 749 750 751 752 753 754 755 756 757 758 759 760 761 762 763 764 765 766 767 768 769 770 771 772 773 774 775 776 777 778 779 780 781 782 783 784 785 786 787 788 789 790 791 792 793 794 795 796 797 798 799 800 801 802 803 804 805 0
-3 -149 0
-4 -149 0
-5 -149 0
-6 -149 0
-7 -149 0
-8 -149 0
-9 -149 0
-10 -149 0
3 4 5 6 7 8 9 10 149 0
-14 -150 0
-15 -150 0
-16 -150 0
-17 -150 0
-18 -150 0
-19 -150 0
-20 -150 0
-21 -150 0
-22 -150 0
-23 -150 0
14 15 16 17 18 19 20 21 22 23 150 0
-24 -151 0
-25 -151 0
-26 -151 0
-27 -151 0
24 25 26 27 151 0
-31 -152 0
-32 -152 0
-33 -152 0
-34 -152 0
31 32 33 34 152 0
-1 -153 0
-2 -153 0
149 -153 0
-11 -153 0
-12 -153 0
-13 -153 0
150 -153 0
151 -153 0
-28 -153 0
-29 -153 0
-30 -153 0
152 -153 0
-35 -153 0
-36 -153 0
-37 -153 0
-38 -153 0
-39 -153 0
-40 -153 0
41 -153 0
-42 -153 0
-43 -153 0
-44 -153 0
-45 -153 0
-46 -153 0
1 2 11 12 13 28 29 30 35 36 37 38 39 40 42 43 44 45 46 153 -149 -150 -151 -152 -41 0
-11 -154 0
1 -154 0
11 154 -1 0
-11 -155 0
2 -155 0
11 155 -2 0
156 -11 0
156 -155 0
11 155 -156 0
156 157 0
157 -156 0
13 -158 0
157 -158 0
158 -13 -157 0
-13 -159 0
156 -159 0
13 159 -156 0
160 -158 0
160 -159 0
158 159 -160 0
160 161 0
48 161 0
-160 -48 -161 0
161 -162 0
154 -162 0
162 -161 -154 0
163 -162 0
161 163 0
162 -161 -163 0
12 -164 0
163 -164 0
164 -12 -163 0
-12 -165 0
154 -165 0
12 165 -154 0
166 -164 0
166 -165 0
164 165 -166 0
-47 -166 -167 0
47 166 -167 0
166 167 -47 0
47 167 -166 0
-49 -160 -168 0
49 160 -168 0
160 168 -49 0
49 168 -160 0
-156 -169 0
58 -169 0
156 169 -58 0
156 -170 0
3 -170 0
170 -156 -3 0
171 -169 0
171 -170 0
169 170 -171 0
-156 -172 0
59 -172 0
156 172 -59 0
156 -173 0
4 -173 0
173 -156 -4 0
174 -172 0
174 -173 0
172 173 -174 0
-156 -175 0
60 -175 0
156 175 -60 0
156 -176 0
5 -176 0
176 -156 -5 0
177 -175 0
177 -176 0
175 176 -177 0
-156 -178 0
61 -178 0
156 178 -61 0
156 -179 0
6 -179 0
179 -156 -6 0
180 -178 0
180 -179 0
178 179 -180 0
-156 -181 0
62 -181 0
156 181 -62 0
156 -182 0
7 -182 0
182 -156 -7 0
183 -181 0
183 -182 0
181 182 -183 0
-156 -184 0
63 -184 0
156 184 -63 0
156 -185 0
8 -185 0
185 -156 -8 0
186 -184 0
186 -185 0
184 185 -186 0
-156 -187 0
64 -187 0
156 187 -64 0
156 -188 0
9 -188 0
188 -156 -9 0
189 -187 0
189 -188 0
187 188 -189 0
-156 -190 0
65 -190 0
156 190 -65 0
156 -191 0
10 -191 0
191 -156 -10 0
192 -190 0
192 -191 0
190 191 -192 0
13 -193 0
171 -193 0
193 -13 -171 0
-13 -194 0
3 -194 0
13 194 -3 0
195 -193 0
195 -194 0
193 194 -195 0
13 -196 0
174 -196 0
196 -13 -174 0
-13 -197 0
4 -197 0
13 197 -4 0
198 -196 0
198 -197 0
196 197 -198 0
13 -199 0
177 -199 0
199 -13 -177 0
-13 -200 0
5 -200 0
13 200 -5 0
201 -199 0
201 -200 0
199 200 -201 0
13 -202 0
180 -202 0
202 -13 -180 0
-13 -203 0
6 -203 0
13 203 -6 0
204 -202 0
204 -203 0
202 203 -204 0
13 -205 0
183 -205 0
205 -13 -183 0
-13 -206 0
7 -206 0
13 206 -7 0
207 -205 0
207 -206 0
205 206 -207 0
13 -208 0
186 -208 0
208 -13 -186 0
-13 -209 0
8 -209 0
13 209 -8 0
210 -208 0
210 -209 0
208 209 -210 0
13 -211 0
189 -211 0
211 -13 -189 0
-13 -212 0
9 -212 0
13 212 -9 0
213 -211 0
213 -212 0
211 212 -213 0
13 -214 0
192 -214 0
214 -13 -192 0
-13 -215 0
10 -215 0
13 215 -10 0
216 -214 0
216 -215 0
214 215 -216 0
-50 -195 -217 0
50 195 -217 0
195 217 -50 0
50 217 -195 0
-51 -198 -218 0
51 198 -218 0
198 218 -51 0
51 218 -198 0
-52 -201 -219 0
52 201 -219 0
201 219 -52 0
52 219 -201 0
-53 -204 -220 0
53 204 -220 0
204 220 -53 0
53 220 -204 0
-54 -207 -221 0
54 207 -221 0
207 221 -54 0
54 221 -207 0
-55 -210 -222 0
55 210 -222 0
210 222 -55 0
55 222 -210 0
-56 -213 -223 0
56 213 -223 0
213 223 -56 0
56 223 -213 0
-57 -216 -224 0
57 216 -224 0
216 224 -57 0
57 224 -216 0
-217 -225 0
-218 -225 0
-219 -225 0
-220 -225 0
-221 -225 0
-222 -225 0
-223 -225 0
-224 -225 0
217 218 219 220 221 222 223 224 225 0
41 -226 0
-41 -226 0
-41 -227 0
226 -227 0
41 227 -226 0
41 -228 0
227 -228 0
228 -41 -227 0
-41 -229 0
228 -229 0
41 229 -228 0
41 -230 0
229 -230 0
230 -41 -229 0
-41 -231 0
230 -231 0
41 231 -230 0
41 -232 0
231 -232 0
232 -41 -231 0
-41 -233 0
232 -233 0
41 233 -232 0
-41 -234 0
233 -234 0
41 234 -233 0
14 235 0
-14 -235 0
-15 -236 0
235 -236 0
15 236 -235 0
237 -236 0
236 -237 0
-16 -238 0
237 -238 0
16 238 -237 0
239 -238 0
238 -239 0
-17 -240 0
239 -240 0
17 240 -239 0
17 241 0
241 -239 0
241 -240 0
239 240 -17 -241 0
-18 -242 0
241 -242 0
18 242 -241 0
243 -242 0
242 -243 0
-19 -244 0
243 -244 0
19 244 -243 0
19 245 0
245 -243 0
245 -244 0
243 244 -19 -245 0
-20 -246 0
245 -246 0
20 246 -245 0
20 247 0
247 -245 0
247 -246 0
245 246 -20 -247 0
-21 -248 0
247 -248 0
21 248 -247 0
249 -248 0
248 -249 0
-22 -250 0
249 -250 0
22 250 -249 0
251 -250 0
250 -251 0
-23 -252 0
251 -252 0
23 252 -251 0
253 -252 0
252 -253 0
254 -253 0
253 -254 0
255 -254 0
254 -255 0
256 -255 0
255 -256 0
257 -256 0
256 -257 0
258 -257 0
257 -258 0
259 -258 0
258 -259 0
260 -259 0
259 -260 0
261 -260 0
260 -261 0
262 -261 0
261 -262 0
263 -262 0
262 -263 0
264 -263 0
263 -264 0
265 -264 0
264 -265 0
266 -265 0
265 -266 0
267 -266 0
266 -267 0
268 -267 0
267 -268 0
269 -268 0
268 -269 0
270 -269 0
269 -270 0
271 -270 0
270 -271 0
272 -271 0
271 -272 0
273 -272 0
272 -273 0
274 -273 0
273 -274 0
275 -274 0
274 -275 0
276 277 0
277 -275 0
275 -276 -277 0
277 0
-275 -278 0
234 -278 0
275 278 -234 0
1 -279 0
278 -279 0
279 -1 -278 0
-66 -279 -280 0
66 279 -280 0
279 280 -66 0
66 280 -279 0
40 -281 0
12 -281 0
281 -40 -12 0
-40 -282 0
281 -282 0
40 282 -281 0
283 -40 0
283 -282 0
40 282 -283 0
-40 -284 0
12 -284 0
40 284 -12 0
40 -285 0
283 -285 0
285 -40 -283 0
286 -284 0
286 -285 0
284 285 -286 0
-67 -286 -287 0
67 286 -287 0
286 287 -67 0
67 287 -286 0
-40 -288 0
13 -288 0
40 288 -13 0
-46 -289 0
13 -289 0
46 289 -13 0
290 -46 0
290 -289 0
46 289 -290 0
-40 -291 0
290 -291 0
40 291 -290 0
40 -292 0
288 -292 0
292 -40 -288 0
293 -291 0
293 -292 0
291 292 -293 0
-68 -293 -294 0
68 293 -294 0
293 294 -68 0
68 294 -293 0
295 -14 0
14 -295 0
-15 -295 -296 0
15 295 -296 0
295 296 -15 0
15 296 -295 0
15 -297 0
295 -297 0
297 -15 -295 0
298 -297 0
297 -298 0
-16 -298 -299 0
16 298 -299 0
298 299 -16 0
16 299 -298 0
16 -300 0
298 -300 0
300 -16 -298 0
301 -300 0
300 -301 0
-17 -301 -302 0
17 301 -302 0
301 302 -17 0
17 302 -301 0
17 -303 0
301 -303 0
303 -17 -301 0
304 -303 0
303 -304 0
-18 -304 -305 0
18 304 -305 0
304 305 -18 0
18 305 -304 0
18 -306 0
304 -306 0
306 -18 -304 0
307 -306 0
306 -307 0
-19 -307 -308 0
19 307 -308 0
307 308 -19 0
19 308 -307 0
19 -309 0
307 -309 0
309 -19 -307 0
310 -309 0
309 -310 0
-20 -310 -311 0
20 310 -311 0
310 311 -20 0
20 311 -310 0
20 -312 0
310 -312 0
312 -20 -310 0
313 -312 0
312 -313 0
-21 -313 -314 0
21 313 -314 0
313 314 -21 0
21 314 -313 0
21 -315 0
313 -315 0
315 -21 -313 0
316 -315 0
315 -316 0
-22 -316 -317 0
22 316 -317 0
316 317 -22 0
22 317 -316 0
22 -318 0
316 -318 0
318 -22 -316 0
319 -318 0
318 -319 0
-23 -319 -320 0
23 319 -320 0
319 320 -23 0
23 320 -319 0
23 -321 0
319 -321 0
321 -23 -319 0
322 -321 0
321 -322 0
275 -323 0
-14 -323 0
14 323 -275 0
275 -324 0
296 -324 0
324 -275 -296 0
275 -325 0
299 -325 0
325 -275 -299 0
275 -326 0
302 -326 0
326 -275 -302 0
275 -327 0
305 -327 0
327 -275 -305 0
275 -328 0
308 -328 0
328 -275 -308 0
275 -329 0
311 -329 0
329 -275 -311 0
275 -330 0
314 -330 0
330 -275 -314 0
275 -331 0
317 -331 0
331 -275 -317 0
275 -332 0
320 -332 0
332 -275 -320 0
1 -333 0
323 -333 0
333 -1 -323 0
-1 -334 0
14 -334 0
1 334 -14 0
335 -333 0
335 -334 0
333 334 -335 0
1 -336 0
324 -336 0
336 -1 -324 0
-1 -337 0
15 -337 0
1 337 -15 0
338 -336 0
338 -337 0
336 337 -338 0
1 -339 0
325 -339 0
339 -1 -325 0
-1 -340 0
16 -340 0
1 340 -16 0
341 -339 0
341 -340 0
339 340 -341 0
1 -342 0
326 -342 0
342 -1 -326 0
-1 -343 0
17 -343 0
1 343 -17 0
344 -342 0
344 -343 0
342 343 -344 0
1 -345 0
327 -345 0
345 -1 -327 0
-1 -346 0
18 -346 0
1 346 -18 0
347 -345 0
347 -346 0
345 346 -347 0
1 -348 0
328 -348 0
348 -1 -328 0
-1 -349 0
19 -349 0
1 349 -19 0
350 -348 0
350 -349 0
348 349 -350 0
1 -351 0
329 -351 0
351 -1 -329 0
-1 -352 0
20 -352 0
1 352 -20 0
353 -351 0
353 -352 0
351 352 -353 0
1 -354 0
330 -354 0
354 -1 -330 0
-1 -355 0
21 -355 0
1 355 -21 0
356 -354 0
356 -355 0
354 355 -356 0
1 -357 0
331 -357 0
357 -1 -331 0
-1 -358 0
22 -358 0
1 358 -22 0
359 -357 0
359 -358 0
357 358 -359 0
1 -360 0
332 -360 0
360 -1 -332 0
-1 -361 0
23 -361 0
1 361 -23 0
362 -360 0
362 -361 0
360 361 -362 0
-69 -335 -363 0
69 335 -363 0
335 363 -69 0
69 363 -335 0
-70 -338 -364 0
70 338 -364 0
338 364 -70 0
70 364 -338 0
-71 -341 -365 0
71 341 -365 0
341 365 -71 0
71 365 -341 0
-72 -344 -366 0
72 344 -366 0
344 366 -72 0
72 366 -344 0
-73 -347 -367 0
73 347 -367 0
347 367 -73 0
73 367 -347 0
-74 -350 -368 0
74 350 -368 0
350 368 -74 0
74 368 -350 0
-75 -353 -369 0
75 353 -369 0
353 369 -75 0
75 369 -353 0
-76 -356 -370 0
76 356 -370 0
356 370 -76 0
76 370 -356 0
-77 -359 -371 0
77 359 -371 0
359 371 -77 0
77 371 -359 0
-78 -362 -372 0
78 362 -372 0
362 372 -78 0
78 372 -362 0
-363 -373 0
-364 -373 0
-365 -373 0
-366 -373 0
-367 -373 0
-368 -373 0
-369 -373 0
-370 -373 0
-371 -373 0
-372 -373 0
363 364 365 366 367 368 369 370 371 372 373 0
374 -24 0
24 -374 0
-25 -374 -375 0
25 374 -375 0
374 375 -25 0
25 375 -374 0
25 -376 0
374 -376 0
376 -25 -374 0
377 -376 0
376 -377 0
-26 -377 -378 0
26 377 -378 0
377 378 -26 0
26 378 -377 0
26 -379 0
377 -379 0
379 -26 -377 0
380 -379 0
379 -380 0
-27 -380 -381 0
27 380 -381 0
380 381 -27 0
27 381 -380 0
27 -382 0
380 -382 0
382 -27 -380 0
383 -382 0
382 -383 0
24 -384 0
-375 -384 0
-378 -384 0
381 -384 0
375 378 384 -24 -381 0
-384 -385 0
-24 -385 0
384 24 385 0
-384 -386 0
375 -386 0
384 386 -375 0
-384 -387 0
378 -387 0
384 387 -378 0
-384 -388 0
381 -388 0
384 388 -381 0
-38 -389 0
385 -389 0
38 389 -385 0
38 -390 0
24 -390 0
390 -38 -24 0
391 -389 0
391 -390 0
389 390 -391 0
-38 -392 0
386 -392 0
38 392 -386 0
38 -393 0
25 -393 0
393 -38 -25 0
394 -392 0
394 -393 0
392 393 -394 0
-38 -395 0
387 -395 0
38 395 -387 0
38 -396 0
26 -396 0
396 -38 -26 0
397 -395 0
397 -396 0
395 396 -397 0
-38 -398 0
388 -398 0
38 398 -388 0
38 -399 0
27 -399 0
399 -38 -27 0
400 -398 0
400 -399 0
398 399 -400 0
38 -401 0
24 -401 0
401 -38 -24 0
-38 -402 0
391 -402 0
38 402 -391 0
403 -401 0
403 -402 0
401 402 -403 0
38 -404 0
25 -404 0
404 -38 -25 0
-38 -405 0
394 -405 0
38 405 -394 0
406 -404 0
406 -405 0
404 405 -406 0
38 -407 0
26 -407 0
407 -38 -26 0
-38 -408 0
397 -408 0
38 408 -397 0
409 -407 0
409 -408 0
407 408 -409 0
38 -410 0
27 -410 0
410 -38 -27 0
-38 -411 0
400 -411 0
38 411 -400 0
412 -410 0
412 -411 0
410 411 -412 0
-38 -413 0
24 -413 0
38 413 -24 0
38 -414 0
403 -414 0
414 -38 -403 0
415 -413 0
415 -414 0
413 414 -415 0
-38 -416 0
25 -416 0
38 416 -25 0
38 -417 0
406 -417 0
417 -38 -406 0
418 -416 0
418 -417 0
416 417 -418 0
-38 -419 0
26 -419 0
38 419 -26 0
38 -420 0
409 -420 0
420 -38 -409 0
421 -419 0
421 -420 0
419 420 -421 0
-38 -422 0
27 -422 0
38 422 -27 0
38 -423 0
412 -423 0
423 -38 -412 0
424 -422 0
424 -423 0
422 423 -424 0
38 -425 0
24 -425 0
425 -38 -24 0
-38 -426 0
415 -426 0
38 426 -415 0
427 -425 0
427 -426 0
425 426 -427 0
38 -428 0
25 -428 0
428 -38 -25 0
-38 -429 0
418 -429 0
38 429 -418 0
430 -428 0
430 -429 0
428 429 -430 0
38 -431 0
26 -431 0
431 -38 -26 0
-38 -432 0
421 -432 0
38 432 -421 0
433 -431 0
433 -432 0
431 432 -433 0
38 -434 0
27 -434 0
434 -38 -27 0
-38 -435 0
424 -435 0
38 435 -424 0
436 -434 0
436 -435 0
434 435 -436 0
-38 -437 0
24 -437 0
38 437 -24 0
38 -438 0
427 -438 0
438 -38 -427 0
439 -437 0
439 -438 0
437 438 -439 0
-38 -440 0
25 -440 0
38 440 -25 0
38 -441 0
430 -441 0
441 -38 -430 0
442 -440 0
442 -441 0
440 441 -442 0
-38 -443 0
26 -443 0
38 443 -26 0
38 -444 0
433 -444 0
444 -38 -433 0
445 -443 0
445 -444 0
443 444 -445 0
-38 -446 0
27 -446 0
38 446 -27 0
38 -447 0
436 -447 0
447 -38 -436 0
448 -446 0
448 -447 0
446 447 -448 0
-79 -439 -449 0
79 439 -449 0
439 449 -79 0
79 449 -439 0
-80 -442 -450 0
80 442 -450 0
442 450 -80 0
80 450 -442 0
-81 -445 -451 0
81 445 -451 0
445 451 -81 0
81 451 -445 0
-82 -448 -452 0
82 448 -452 0
448 452 -82 0
82 452 -448 0
-449 -453 0
-450 -453 0
-451 -453 0
-452 -453 0
449 450 451 452 453 0
38 -454 0
28 -454 0
454 -38 -28 0
38 -455 0
28 -455 0
455 -38 -28 0
-38 -456 0
454 -456 0
38 456 -454 0
457 -455 0
457 -456 0
455 456 -457 0
38 -458 0
457 -458 0
458 -38 -457 0
38 459 0
459 -458 0
458 -38 -459 0
38 -460 0
28 -460 0
460 -38 -28 0
-38 -461 0
459 -461 0
38 461 -459 0
462 -460 0
462 -461 0
460 461 -462 0
-38 -463 0
28 -463 0
38 463 -28 0
38 -464 0
462 -464 0
464 -38 -462 0
465 -463 0
465 -464 0
463 464 -465 0
-83 -465 -466 0
83 465 -466 0
465 466 -83 0
83 466 -465 0
38 -467 0
29 -467 0
467 -38 -29 0
85 -468 0
29 -468 0
468 -85 -29 0
469 -468 0
85 469 0
468 -85 -469 0
38 -470 0
469 -470 0
470 -38 -469 0
-38 -471 0
467 -471 0
38 471 -467 0
472 -470 0
472 -471 0
470 471 -472 0
-38 -473 0
29 -473 0
38 473 -29 0
38 -474 0
472 -474 0
474 -38 -472 0
475 -473 0
475 -474 0
473 474 -475 0
38 -476 0
29 -476 0
476 -38 -29 0
-38 -477 0
475 -477 0
38 477 -475 0
478 -476 0
478 -477 0
476 477 -478 0
-38 -479 0
29 -479 0
38 479 -29 0
38 -480 0
478 -480 0
480 -38 -478 0
481 -479 0
481 -480 0
479 480 -481 0
-84 -481 -482 0
84 481 -482 0
481 482 -84 0
84 482 -481 0
42 -483 0
30 -483 0
483 -42 -30 0
42 484 0
484 -483 0
483 -42 -484 0
-45 -485 0
30 -485 0
45 485 -30 0
45 -486 0
484 -486 0
486 -45 -484 0
487 -485 0
487 -486 0
485 486 -487 0
-39 -488 0
487 -488 0
39 488 -487 0
39 -489 0
30 -489 0
489 -39 -30 0
490 -488 0
490 -489 0
488 489 -490 0
39 -491 0
30 -491 0
491 -39 -30 0
-39 -492 0
490 -492 0
39 492 -490 0
493 -491 0
493 -492 0
491 492 -493 0
-39 -494 0
30 -494 0
39 494 -30 0
39 -495 0
493 -495 0
495 -39 -493 0
496 -494 0
496 -495 0
494 495 -496 0
-86 -496 -497 0
86 496 -497 0
496 497 -86 0
86 497 -496 0
-38 -498 0
385 -498 0
38 498 -385 0
38 -499 0
31 -499 0
499 -38 -31 0
500 -498 0
500 -499 0
498 499 -500 0
-38 -501 0
386 -501 0
38 501 -386 0
38 -502 0
32 -502 0
502 -38 -32 0
503 -501 0
503 -502 0
501 502 -503 0
-38 -504 0
387 -504 0
38 504 -387 0
38 -505 0
33 -505 0
505 -38 -33 0
506 -504 0
506 -505 0
504 505 -506 0
-38 -507 0
388 -507 0
38 507 -388 0
38 -508 0
34 -508 0
508 -38 -34 0
509 -507 0
509 -508 0
507 508 -509 0
38 -510 0
31 -510 0
510 -38 -31 0
-38 -511 0
500 -511 0
38 511 -500 0
512 -510 0
512 -511 0
510 511 -512 0
38 -513 0
32 -513 0
513 -38 -32 0
-38 -514 0
503 -514 0
38 514 -503 0
515 -513 0
515 -514 0
513 514 -515 0
38 -516 0
33 -516 0
516 -38 -33 0
-38 -517 0
506 -517 0
38 517 -506 0
518 -516 0
518 -517 0
516 517 -518 0
38 -519 0
34 -519 0
519 -38 -34 0
-38 -520 0
509 -520 0
38 520 -509 0
521 -519 0
521 -520 0
519 520 -521 0
-38 -522 0
31 -522 0
38 522 -31 0
38 -523 0
512 -523 0
523 -38 -512 0
524 -522 0
524 -523 0
522 523 -524 0
-38 -525 0
32 -525 0
38 525 -32 0
38 -526 0
515 -526 0
526 -38 -515 0
527 -525 0
527 -526 0
525 526 -527 0
-38 -528 0
33 -528 0
38 528 -33 0
38 -529 0
518 -529 0
529 -38 -518 0
530 -528 0
530 -529 0
528 529 -530 0
-38 -531 0
34 -531 0
38 531 -34 0
38 -532 0
521 -532 0
532 -38 -521 0
533 -531 0
533 -532 0
531 532 -533 0
38 -534 0
31 -534 0
534 -38 -31 0
-38 -535 0
524 -535 0
38 535 -524 0
536 -534 0
536 -535 0
534 535 -536 0
38 -537 0
32 -537 0
537 -38 -32 0
-38 -538 0
527 -538 0
38 538 -527 0
539 -537 0
539 -538 0
537 538 -539 0
38 -540 0
33 -540 0
540 -38 -33 0
-38 -541 0
530 -541 0
38 541 -530 0
542 -540 0
542 -541 0
540 541 -542 0
38 -543 0
34 -543 0
543 -38 -34 0
-38 -544 0
533 -544 0
38 544 -533 0
545 -543 0
545 -544 0
543 544 -545 0
-38 -546 0
31 -546 0
38 546 -31 0
38 -547 0
536 -547 0
547 -38 -536 0
548 -546 0
548 -547 0
546 547 -548 0
-38 -549 0
32 -549 0
38 549 -32 0
38 -550 0
539 -550 0
550 -38 -539 0
551 -549 0
551 -550 0
549 550 -551 0
-38 -552 0
33 -552 0
38 552 -33 0
38 -553 0
542 -553 0
553 -38 -542 0
554 -552 0
554 -553 0
552 553 -554 0
-38 -555 0
34 -555 0
38 555 -34 0
38 -556 0
545 -556 0
556 -38 -545 0
557 -555 0
557 -556 0
555 556 -557 0
-87 -548 -558 0
87 548 -558 0
548 558 -87 0
87 558 -548 0
-88 -551 -559 0
88 551 -559 0
551 559 -88 0
88 559 -551 0
-89 -554 -560 0
89 554 -560 0
554 560 -89 0
89 560 -554 0
-90 -557 -561 0
90 557 -561 0
557 561 -90 0
90 561 -557 0
-558 -562 0
-559 -562 0
-560 -562 0
-561 -562 0
558 559 560 561 562 0
85 -563 0
35 -563 0
563 -85 -35 0
38 -564 0
563 -564 0
564 -38 -563 0
-38 -565 0
35 -565 0
38 565 -35 0
566 -564 0
566 -565 0
564 565 -566 0
-38 -567 0
35 -567 0
38 567 -35 0
38 -568 0
566 -568 0
568 -38 -566 0
569 -567 0
569 -568 0
567 568 -569 0
38 -570 0
35 -570 0
570 -38 -35 0
-38 -571 0
569 -571 0
38 571 -569 0
572 -570 0
572 -571 0
570 571 -572 0
38 -573 0
572 -573 0
573 -38 -572 0
38 574 0
574 -573 0
573 -38 -574 0
-91 -574 -575 0
91 574 -575 0
574 575 -91 0
91 575 -574 0
13 -576 0
156 -576 0
576 -13 -156 0
-13 -577 0
36 -577 0
13 577 -36 0
578 -576 0
578 -577 0
576 577 -578 0
12 -579 0
161 -579 0
579 -12 -161 0
-12 -580 0
578 -580 0
12 580 -578 0
581 -579 0
581 -580 0
579 580 -581 0
-92 -581 -582 0
92 581 -582 0
581 582 -92 0
92 582 -581 0
-41 -583 0
3 -583 0
41 583 -3 0
584 -583 0
584 -41 0
583 41 -584 0
41 -585 0
4 -585 0
585 -41 -4 0
-41 -586 0
584 -586 0
41 586 -584 0
587 -585 0
587 -586 0
585 586 -587 0
-41 -588 0
5 -588 0
41 588 -5 0
41 -589 0
587 -589 0
589 -41 -587 0
590 -588 0
590 -589 0
588 589 -590 0
41 -591 0
6 -591 0
591 -41 -6 0
-41 -592 0
590 -592 0
41 592 -590 0
593 -591 0
593 -592 0
591 592 -593 0
-41 -594 0
7 -594 0
41 594 -7 0
41 -595 0
593 -595 0
595 -41 -593 0
596 -594 0
596 -595 0
594 595 -596 0
41 -597 0
8 -597 0
597 -41 -8 0
-41 -598 0
596 -598 0
41 598 -596 0
599 -597 0
599 -598 0
597 598 -599 0
-41 -600 0
9 -600 0
41 600 -9 0
41 -601 0
599 -601 0
601 -41 -599 0
602 -600 0
602 -601 0
600 601 -602 0
41 -603 0
10 -603 0
603 -41 -10 0
-41 -604 0
602 -604 0
41 604 -602 0
605 -603 0
605 -604 0
603 604 -605 0
-41 -606 0
605 -606 0
41 606 -605 0
-275 -607 0
606 -607 0
275 607 -606 0
608 -607 0
608 -275 0
607 275 -608 0
1 -609 0
608 -609 0
609 -1 -608 0
610 -609 0
1 610 0
609 -1 -610 0
-93 -610 -611 0
93 610 -611 0
610 611 -93 0
93 611 -610 0
38 -612 0
-43 -612 0
43 612 -38 0
-38 -613 0
38 -613 0
614 -612 0
614 -613 0
612 613 -614 0
38 -615 0
614 -615 0
615 -38 -614 0
38 616 0
616 -615 0
615 -38 -616 0
-38 -617 0
616 -617 0
38 617 -616 0
38 -618 0
617 -618 0
618 -38 -617 0
38 619 0
619 -618 0
618 -38 -619 0
38 -620 0
85 -620 0
620 -38 -85 0
-38 -621 0
619 -621 0
38 621 -619 0
622 -620 0
622 -621 0
620 621 -622 0
38 -623 0
622 -623 0
623 -38 -622 0
38 624 0
624 -623 0
623 -38 -624 0
-38 -625 0
624 -625 0
38 625 -624 0
38 -626 0
625 -626 0
626 -38 -625 0
38 627 0
627 -626 0
626 -38 -627 0
-94 -627 -628 0
94 627 -628 0
627 628 -94 0
94 628 -627 0
-39 -629 0
39 -629 0
-39 -630 0
45 -630 0
39 630 -45 0
39 -631 0
629 -631 0
631 -39 -629 0
632 -630 0
632 -631 0
630 631 -632 0
-39 -633 0
632 -633 0
39 633 -632 0
-39 -634 0
44 -634 0
39 634 -44 0
39 -635 0
633 -635 0
635 -39 -633 0
636 -634 0
636 -635 0
634 635 -636 0
-95 -636 -637 0
95 636 -637 0
636 637 -95 0
95 637 -636 0
-11 -638 0
40 -638 0
11 638 -40 0
40 -639 0
638 -639 0
639 -40 -638 0
-40 -640 0
40 -640 0
641 -639 0
641 -640 0
639 640 -641 0
40 -642 0
641 -642 0
642 -40 -641 0
40 643 0
643 -642 0
642 -40 -643 0
-40 -644 0
643 -644 0
40 644 -643 0
-40 -645 0
46 -645 0
40 645 -46 0
40 -646 0
644 -646 0
646 -40 -644 0
647 -645 0
647 -646 0
645 646 -647 0
-96 -647 -648 0
96 647 -648 0
647 648 -96 0
96 648 -647 0
41 649 0
649 -41 0
41 -650 0
649 -650 0
650 -41 -649 0
-41 -651 0
650 -651 0
41 651 -650 0
41 -652 0
651 -652 0
652 -41 -651 0
41 653 0
653 -652 0
652 -41 -653 0
-41 -654 0
653 -654 0
41 654 -653 0
41 -655 0
654 -655 0
655 -41 -654 0
41 656 0
656 -655 0
655 -41 -656 0
-41 -657 0
656 -657 0
41 657 -656 0
41 -658 0
657 -658 0
658 -41 -657 0
41 659 0
659 -658 0
658 -41 -659 0
-41 -660 0
659 -660 0
41 660 -659 0
-41 -661 0
660 -661 0
41 661 -660 0
662 -41 0
662 -661 0
41 661 -662 0
-275 -663 0
662 -663 0
275 663 -662 0
275 -664 0
41 -664 0
664 -275 -41 0
665 -663 0
665 -664 0
663 664 -665 0
1 -666 0
665 -666 0
666 -1 -665 0
-1 -667 0
41 -667 0
1 667 -41 0
668 -666 0
668 -667 0
666 667 -668 0
-97 -668 -669 0
97 668 -669 0
668 669 -97 0
97 669 -668 0
-45 -670 0
42 -670 0
45 670 -42 0
45 -671 0
-42 -671 0
42 671 -45 0
672 -670 0
672 -671 0
670 671 -672 0
-39 -673 0
672 -673 0
39 673 -672 0
39 -674 0
42 -674 0
674 -39 -42 0
675 -673 0
675 -674 0
673 674 -675 0
39 -676 0
42 -676 0
676 -39 -42 0
-39 -677 0
675 -677 0
39 677 -675 0
678 -676 0
678 -677 0
676 677 -678 0
-39 -679 0
42 -679 0
39 679 -42 0
39 -680 0
678 -680 0
680 -39 -678 0
681 -679 0
681 -680 0
679 680 -681 0
-98 -681 -682 0
98 681 -682 0
681 682 -98 0
98 682 -681 0
-42 -683 0
43 -683 0
42 683 -43 0
-45 -684 0
43 -684 0
45 684 -43 0
45 -685 0
683 -685 0
685 -45 -683 0
686 -684 0
686 -685 0
684 685 -686 0
-39 -687 0
686 -687 0
39 687 -686 0
39 -688 0
43 -688 0
688 -39 -43 0
689 -687 0
689 -688 0
687 688 -689 0
39 -690 0
43 -690 0
690 -39 -43 0
-39 -691 0
689 -691 0
39 691 -689 0
692 -690 0
692 -691 0
690 691 -692 0
-44 -693 0
43 -693 0
44 693 -43 0
694 -44 0
694 -693 0
44 693 -694 0
-39 -695 0
694 -695 0
39 695 -694 0
39 -696 0
692 -696 0
696 -39 -692 0
697 -695 0
697 -696 0
695 696 -697 0
-99 -697 -698 0
99 697 -698 0
697 698 -99 0
99 698 -697 0
-43 -699 0
44 -699 0
43 699 -44 0
38 -700 0
699 -700 0
700 -38 -699 0
-38 -701 0
44 -701 0
38 701 -44 0
702 -700 0
702 -701 0
700 701 -702 0
-38 -703 0
44 -703 0
38 703 -44 0
38 -704 0
702 -704 0
704 -38 -702 0
705 -703 0
705 -704 0
703 704 -705 0
-38 -706 0
705 -706 0
38 706 -705 0
707 -38 0
707 -706 0
38 706 -707 0
-38 -708 0
44 -708 0
38 708 -44 0
38 -709 0
707 -709 0
709 -38 -707 0
710 -708 0
710 -709 0
708 709 -710 0
38 -711 0
44 -711 0
711 -38 -44 0
-38 -712 0
710 -712 0
38 712 -710 0
713 -711 0
713 -712 0
711 712 -713 0
-38 -714 0
44 -714 0
38 714 -44 0
38 -715 0
713 -715 0
715 -38 -713 0
716 -714 0
716 -715 0
714 715 -716 0
38 -717 0
44 -717 0
717 -38 -44 0
-38 -718 0
716 -718 0
38 718 -716 0
719 -717 0
719 -718 0
717 718 -719 0
-38 -720 0
44 -720 0
38 720 -44 0
38 -721 0
719 -721 0
721 -38 -719 0
722 -720 0
722 -721 0
720 721 -722 0
-100 -722 -723 0
100 722 -723 0
722 723 -100 0
100 723 -722 0
-11 -724 0
45 -724 0
11 724 -45 0
725 -11 0
725 -724 0
11 724 -725 0
40 -726 0
725 -726 0
726 -40 -725 0
-40 -727 0
45 -727 0
40 727 -45 0
728 -726 0
728 -727 0
726 727 -728 0
-40 -729 0
45 -729 0
40 729 -45 0
40 -730 0
728 -730 0
730 -40 -728 0
731 -729 0
731 -730 0
729 730 -731 0
40 -732 0
45 -732 0
732 -40 -45 0
-40 -733 0
731 -733 0
40 733 -731 0
734 -732 0
734 -733 0
732 733 -734 0
40 -735 0
734 -735 0
735 -40 -734 0
-101 -735 -736 0
101 735 -736 0
735 736 -101 0
101 736 -735 0
45 -737 0
46 -737 0
737 -45 -46 0
-39 -738 0
737 -738 0
39 738 -737 0
39 -739 0
46 -739 0
739 -39 -46 0
740 -738 0
740 -739 0
738 739 -740 0
-39 -741 0
740 -741 0
39 741 -740 0
742 -39 0
742 -741 0
39 741 -742 0
-39 -743 0
46 -743 0
39 743 -46 0
39 -744 0
742 -744 0
744 -39 -742 0
745 -743 0
745 -744 0
743 744 -745 0
-102 -745 -746 0
102 745 -746 0
745 746 -102 0
102 746 -745 0
-167 -747 0
-168 -747 0
225 -747 0
-280 -747 0
-287 -747 0
-294 -747 0
373 -747 0
453 -747 0
-466 -747 0
-482 -747 0
-497 -747 0
562 -747 0
-575 -747 0
-582 -747 0
-611 -747 0
-628 -747 0
-637 -747 0
-648 -747 0
-669 -747 0
-682 -747 0
-698 -747 0
-723 -747 0
-736 -747 0
-746 -747 0
167 168 280 287 294 466 482 497 575 582 611 628 637 648 669 682 698 723 736 746 747 -225 -373 -453 -562 0
153 -748 0
747 -748 0
748 -153 -747 0
-105 -749 0
-106 -749 0
-107 -749 0
-108 -749 0
-109 -749 0
-110 -749 0
-111 -749 0
-112 -749 0
105 106 107 108 109 110 111 112 749 0
-116 -750 0
-117 -750 0
-118 -750 0
-119 -750 0
-120 -750 0
-121 -750 0
-122 -750 0
-123 -750 0
-124 -750 0
-125 -750 0
116 117 118 119 120 121 122 123 124 125 750 0
-126 -751 0
-127 -751 0
-128 -751 0
-129 -751 0
126 127 128 129 751 0
-133 -752 0
-134 -752 0
-135 -752 0
-136 -752 0
133 134 135 136 752 0
-103 -753 0
-104 -753 0
749 -753 0
-113 -753 0
-114 -753 0
-115 -753 0
750 -753 0
751 -753 0
-130 -753 0
-131 -753 0
-132 -753 0
752 -753 0
-137 -753 0
-138 -753 0
-139 -753 0
-140 -753 0
-141 -753 0
-142 -753 0
143 -753 0
-144 -753 0
-145 -753 0
-146 -753 0
-147 -753 0
-148 -753 0
103 104 113 114 115 130 131 132 137 138 139 140 141 142 144 145 146 147 148 753 -749 -750 -751 -752 -143 0
-47 -103 -754 0
47 103 -754 0
103 754 -47 0
47 754 -103 0
-49 -104 -755 0
49 104 -755 0
104 755 -49 0
49 755 -104 0
-50 -105 -756 0
50 105 -756 0
105 756 -50 0
50 756 -105 0
-51 -106 -757 0
51 106 -757 0
106 757 -51 0
51 757 -106 0
-52 -107 -758 0
52 107 -758 0
107 758 -52 0
52 758 -107 0
-53 -108 -759 0
53 108 -759 0
108 759 -53 0
53 759 -108 0
-54 -109 -760 0
54 109 -760 0
109 760 -54 0
54 760 -109 0
-55 -110 -761 0
55 110 -761 0
110 761 -55 0
55 761 -110 0
-56 -111 -762 0
56 111 -762 0
111 762 -56 0
56 762 -111 0
-57 -112 -763 0
57 112 -763 0
112 763 -57 0
57 763 -112 0
-756 -764 0
-757 -764 0
-758 -764 0
-759 -764 0
-760 -764 0
-761 -764 0
-762 -764 0
-763 -764 0
756 757 758 759 760 761 762 763 764 0
-66 -113 -765 0
66 113 -765 0
113 765 -66 0
66 765 -113 0
-67 -114 -766 0
67 114 -766 0
114 766 -67 0
67 766 -114 0
-68 -115 -767 0
68 115 -767 0
115 767 -68 0
68 767 -115 0
-69 -116 -768 0
69 116 -768 0
116 768 -69 0
69 768 -116 0
-70 -117 -769 0
70 117 -769 0
117 769 -70 0
70 769 -117 0
-71 -118 -770 0
71 118 -770 0
118 770 -71 0
71 770 -118 0
-72 -119 -771 0
72 119 -771 0
119 771 -72 0
72 771 -119 0
-73 -120 -772 0
73 120 -772 0
120 772 -73 0
73 772 -120 0
-74 -121 -773 0
74 121 -773 0
121 773 -74 0
74 773 -121 0
-75 -122 -774 0
75 122 -774 0
122 774 -75 0
75 774 -122 0
-76 -123 -775 0
76 123 -775 0
123 775 -76 0
76 775 -123 0
-77 -124 -776 0
77 124 -776 0
124 776 -77 0
77 776 -124 0
-78 -125 -777 0
78 125 -777 0
125 777 -78 0
78 777 -125 0
-768 -778 0
-769 -778 0
-770 -778 0
-771 -778 0
-772 -778 0
-773 -778 0
-774 -778 0
-775 -778 0
-776 -778 0
-777 -778 0
768 769 770 771 772 773 774 775 776 777 778 0
-79 -126 -779 0
79 126 -779 0
126 779 -79 0
79 779 -126 0
-80 -127 -780 0
80 127 -780 0
127 780 -80 0
80 780 -127 0
-81 -128 -781 0
81 128 -781 0
128 781 -81 0
81 781 -128 0
-82 -129 -782 0
82 129 -782 0
129 782 -82 0
82 782 -129 0
-779 -783 0
-780 -783 0
-781 -783 0
-782 -783 0
779 780 781 782 783 0
-83 -130 -784 0
83 130 -784 0
130 784 -83 0
83 784 -130 0
-84 -131 -785 0
84 131 -785 0
131 785 -84 0
84 785 -131 0
-86 -132 -786 0
86 132 -786 0
132 786 -86 0
86 786 -132 0
-87 -133 -787 0
87 133 -787 0
133 787 -87 0
87 787 -133 0
-88 -134 -788 0
88 134 -788 0
134 788 -88 0
88 788 -134 0
-89 -135 -789 0
89 135 -789 0
135 789 -89 0
89 789 -135 0
-90 -136 -790 0
90 136 -790 0
136 790 -90 0
90 790 -136 0
-787 -791 0
-788 -791 0
-789 -791 0
-790 -791 0
787 788 789 790 791 0
-91 -137 -792 0
91 137 -792 0
137 792 -91 0
91 792 -137 0
-92 -138 -793 0
92 138 -793 0
138 793 -92 0
92 793 -138 0
-93 -139 -794 0
93 139 -794 0
139 794 -93 0
93 794 -139 0
-94 -140 -795 0
94 140 -795 0
140 795 -94 0
94 795 -140 0
-95 -141 -796 0
95 141 -796 0
141 796 -95 0
95 796 -141 0
-96 -142 -797 0
96 142 -797 0
142 797 -96 0
96 797 -142 0
-97 -143 -798 0
97 143 -798 0
143 798 -97 0
97 798 -143 0
-98 -144 -799 0
98 144 -799 0
144 799 -98 0
98 799 -144 0
-99 -145 -800 0
99 145 -800 0
145 800 -99 0
99 800 -145 0
-100 -146 -801 0
100 146 -801 0
146 801 -100 0
100 801 -146 0
-101 -147 -802 0
101 147 -802 0
147 802 -101 0
101 802 -147 0
-102 -148 -803 0
102 148 -803 0
148 803 -102 0
102 803 -148 0
-754 -804 0
-755 -804 0
764 -804 0
-765 -804 0
-766 -804 0
-767 -804 0
778 -804 0
783 -804 0
-784 -804 0
-785 -804 0
-786 -804 0
791 -804 0
-792 -804 0
-793 -804 0
-794 -804 0
-795 -804 0
-796 -804 0
-797 -804 0
-798 -804 0
-799 -804 0
-800 -804 0
-801 -804 0
-802 -804 0
-803 -804 0
754 755 765 766 767 784 785 786 792 793 794 795 796 797 798 799 800 801 802 803 804 -764 -778 -783 -791 0
753 -805 0
804 -805 0
805 -753 -804 0
805 -748 0
